
--- Job CVaR.gms Start 04/17/19 20:46:38 26.1.0 rf2b37b9 WEX-WEI x86 64bit/MS Windows
GAMS 26.1.0   Copyright (C) 1987-2019 GAMS Development. All rights reserved
Licensee: Course License NUS Business School             S190121:0416AO-GEN
          Analytics and Operations                                  DC14729
          License for teaching and research at degree granting institutions
          License Admin: Fernando Oliveira, bizfmdo@nus.edu.sg             
--- Starting compilation
--- CVaR.gms(79) 4 Mb
--- Starting execution: elapsed 0:00:00.023
--- CVaR.gms(49) 6 Mb
--- Generating LP model portfolio
--- CVaR.gms(77) 12 Mb
---   10,004 rows  10,006 columns  50,010 non-zeroes
--- Executing CPLEX: elapsed 0:00:00.180

IBM ILOG CPLEX   26.1.0 rf2b37b9 Released Feb 02, 2019 WEI x86 64bit/MS Window
--- GAMS/Cplex licensed for continuous and discrete problems.
Cplex 12.8.0.0

Reading data...
Starting Cplex...
Space for names approximately 0.36 Mb
Use option 'names no' to turn use of names off
CPXPARAM_Advance                                 0
CPXPARAM_Simplex_Limits_Iterations               2000000000
CPXPARAM_TimeLimit                               1000
CPXPARAM_Threads                                 1
CPXPARAM_Parallel                                1
CPXPARAM_Tune_TimeLimit                          200
Tried aggregator 1 time.
LP Presolve eliminated 2 rows and 2 columns.
Reduced LP has 10002 rows, 10004 columns, and 40006 nonzeros.
Presolve time = 0.02 sec. (7.48 ticks)
Initializing dual steep norms . . .

Iteration log . . .
Iteration:     1   Scaled dual infeas =             0.900000
Iteration:    11   Dual objective     =             0.016439
LP status(1): optimal
Cplex Time: 0.05sec (det. 34.39 ticks)

Optimal solution found.
Objective :           0.080824

--- Restarting execution
--- CVaR.gms(77) 6 Mb
--- Reading solution for model portfolio
--- CVaR.gms(77) 7 Mb
--- Executing after solve: elapsed 0:00:00.569
--- CVaR.gms(79) 7 Mb
*** Status: Normal completion
--- Job CVaR.gms Stop 04/17/19 20:46:39 elapsed 0:00:00.909
